; Automatically generated by map2smt

(set-logic HORN)

(declare-datatypes ((listOfInt 0) )
(((conslistOfInt (headlistOfInt Int) (taillistOfInt listOfInt)) (nillistOfInt))))



(declare-fun adt_new1 (listOfInt listOfInt Bool) Bool)
(declare-fun leq (Int Int Bool) Bool)
(declare-fun rev (listOfInt listOfInt) Bool)
(declare-fun append (listOfInt listOfInt listOfInt) Bool)
(declare-fun ff () Bool)

(assert
  (forall ( (A Int) (B listOfInt) (C Bool) )
    (=>
      (= C false)
      (adt_new1 nillistOfInt (conslistOfInt A B) C)
    )
  )
)
(assert
  (forall ( (A Int) (B listOfInt) (C Bool) )
    (=>
      (= C false)
      (adt_new1 (conslistOfInt A B) nillistOfInt C)
    )
  )
)
(assert
  (forall ( (A Bool) )
    (=>
      (= A true)
      (adt_new1 nillistOfInt nillistOfInt A)
    )
  )
)
(assert
  (forall ( (A Int) (B listOfInt) (C Int) (D listOfInt) (E Bool) )
    (=>
      (and
        (= E false)
        (>= (- C A) 1)
      )
      (adt_new1 (conslistOfInt A B) (conslistOfInt C D) E)
    )
  )
)
(assert
  (forall ( (A Int) (B listOfInt) (C Int) (D listOfInt) (E Bool) )
    (=>
      (and
        (= E false)
        (<= (- C A) (- 1))
      )
      (adt_new1 (conslistOfInt A B) (conslistOfInt C D) E)
    )
  )
)
(assert
  (forall ( (A Int) (B listOfInt) (C listOfInt) (D Bool) )
    (=>
      (adt_new1 B C D)
      (adt_new1 (conslistOfInt A B) (conslistOfInt A C) D)
    )
  )
)
(assert
    (rev nillistOfInt nillistOfInt)
)
(assert
  (forall ( (A Int) (B listOfInt) (C listOfInt) (D listOfInt) )
    (=>
      (and
        (rev B D)
        (append D (conslistOfInt A nillistOfInt) C)
      )
      (rev (conslistOfInt A B) C)
    )
  )
)
(assert
  (forall ( (A listOfInt) )
    (append nillistOfInt A A)
  )
)
(assert
  (forall ( (A Int) (B listOfInt) (C listOfInt) (D listOfInt) )
    (=>
      (append B C D)
      (append (conslistOfInt A B) C (conslistOfInt A D))
    )
  )
)
(assert
  (forall ( (A Bool) (B listOfInt) (C listOfInt) (D listOfInt) (E listOfInt) (F listOfInt) (G listOfInt) (H listOfInt) (I listOfInt) (J listOfInt) (K listOfInt) )
    (=>
      (and
        (= A true)
        (append B C D)
        (rev D E)
        (rev E F)
        (rev B G)
        (rev G H)
        (rev C I)
        (rev I J)
        (append H J K)
        (adt_new1 F K A)
      )
      ff
    )
  )
)

(assert (not ff))
(check-sat)
